
Log started (V12.10.0.0) Thu Apr  8 06:36:37 2021


Problem 'asset.lp' read.
Read time = 0.00 sec. (0.15 ticks)
New value for default parallel thread count: 1
New value for time limit in seconds: 200
Version identifier: 12.10.0.0 | 2019-11-26 | 843d4de
CPXPARAM_Threads                                 1
CPXPARAM_TimeLimit                               200
Found incumbent of value -0.879904 after 0.00 sec. (0.07 ticks)
Tried aggregator 3 times.
MIP Presolve eliminated 476 rows and 240 columns.
MIP Presolve modified 1414 coefficients.
Aggregator did 430 substitutions.
Reduced MIP has 528 rows, 587 columns, and 2495 nonzeros.
Reduced MIP has 512 binaries, 43 generals, 0 SOSs, and 0 indicators.
Presolve time = 0.01 sec. (6.20 ticks)
Probing fixed 65 vars, tightened 11 bounds.
Probing time = 0.01 sec. (3.09 ticks)
Cover probing fixed 0 vars, tightened 23 bounds.
Tried aggregator 1 time.
MIP Presolve eliminated 91 rows and 87 columns.
MIP Presolve modified 110 coefficients.
Reduced MIP has 437 rows, 496 columns, and 1989 nonzeros.
Reduced MIP has 436 binaries, 28 generals, 0 SOSs, and 0 indicators.
Presolve time = 0.00 sec. (1.20 ticks)
Probing time = 0.00 sec. (2.46 ticks)
Tried aggregator 1 time.
Detecting symmetries...
MIP Presolve modified 138 coefficients.
Reduced MIP has 437 rows, 496 columns, and 1989 nonzeros.
Reduced MIP has 436 binaries, 28 generals, 0 SOSs, and 0 indicators.
Presolve time = 0.00 sec. (1.38 ticks)
Probing time = 0.00 sec. (2.45 ticks)
Clique table members: 1453.
MIP emphasis: balance optimality and feasibility.
MIP search method: dynamic search.
Parallel mode: none, using 1 thread.
Root relaxation solution time = 0.00 sec. (4.23 ticks)

        Nodes                                         Cuts/
   Node  Left     Objective  IInf  Best Integer    Best Bound    ItCnt     Gap

*     0+    0                           -0.8799      327.2984              --- 
      0     0      225.0483   103       -0.8799      225.0483      338     --- 
      0     0      218.4757   103       -0.8799     Cuts: 204      495     --- 
      0     0      213.9773   103       -0.8799     Cuts: 196      635     --- 
      0     0      211.9354   103       -0.8799     Cuts: 110      724     --- 
      0     0      211.5157   103       -0.8799     Cuts: 105      817     --- 
      0     0      210.9394   103       -0.8799      Cuts: 91      904     --- 
Detecting symmetries...
      0     0      210.7275   103       -0.8799      Cuts: 46      925     --- 
      0     0      210.5376   103       -0.8799      Cuts: 46      955     --- 
      0     0      210.4603   103       -0.8799      Cuts: 24      976     --- 
      0     0      210.4226   103       -0.8799      Cuts: 68      995     --- 
      0     0      210.3766   103       -0.8799      Cuts: 31     1035     --- 
      0     0      210.3212   103       -0.8799      Cuts: 47     1066     --- 
      0     0      210.2244   103       -0.8799      Cuts: 24     1096     --- 
      0     0      210.1191   103       -0.8799      Cuts: 41     1123     --- 
*     0+    0                          101.8899      210.1191           106.22%
      0     0      210.0219   103      101.8899      Cuts: 35     1155  106.13%
      0     0      209.9558   103      101.8899      Cuts: 23     1195  106.06%
      0     0      209.9480   103      101.8899      Cuts: 35     1212  106.05%
      0     0      209.9076   103      101.8899      Cuts: 12     1225  106.01%
      0     0      209.8473   103      101.8899      Cuts: 25     1264  105.95%
      0     0      209.7758   103      101.8899      Cuts: 52     1318  105.88%
      0     0      209.7639   103      101.8899      Cuts: 38     1333  105.87%
*     0+    0                          109.5802      209.7639            91.42%
Detecting symmetries...
      0     2      209.7639   125      109.5802      209.7393     1333   91.40%
Elapsed time = 0.22 sec. (207.56 ticks, tree = 0.01 MB, solutions = 2)
*    30+   23                          121.4165      208.5966            71.80%
*    38    29      integral     0      132.4608      208.5966     2755   57.48%
*   138+  101                          133.8114      208.3312            55.69%
*   138+   97                          137.0781      208.3312            51.98%
    215   165      143.6578    10      137.0781      207.8670     8250   51.64%
*   219   162      integral     0      139.4542      207.8670     8287   49.06%
*   244   170      integral     0      143.6683      207.1181     8817   44.16%
*   289   174      integral     0      149.8565      205.9866    10412   37.46%
*   330   190      integral     0      154.2759      205.4124    11687   33.15%
    391   232      171.1335    65      154.2759      203.4208    13951   31.86%
*   430+  247                          154.2766      202.4904            31.25%
    583   368      188.3926    73      154.2766      199.5768    19657   29.36%
    786   515      163.9367    51      154.2766      197.6637    26105   28.12%
    965   616      170.2363    88      154.2766      195.7757    33012   26.90%

Performing restart 1

Repeating presolve.
Tried aggregator 2 times.
MIP Presolve eliminated 1 rows and 0 columns.
MIP Presolve modified 353 coefficients.
Aggregator did 9 substitutions.
Reduced MIP has 427 rows, 487 columns, and 1707 nonzeros.
Reduced MIP has 427 binaries, 28 generals, 0 SOSs, and 0 indicators.
Presolve time = 0.00 sec. (2.07 ticks)
Tried aggregator 1 time.
Reduced MIP has 427 rows, 487 columns, and 1707 nonzeros.
Reduced MIP has 427 binaries, 28 generals, 0 SOSs, and 0 indicators.
Presolve time = 0.00 sec. (1.28 ticks)
Represolve time = 0.01 sec. (10.44 ticks)
   1027     0      182.8566   121      154.2766     Cuts: 206    35732   18.53%
   1027     0      176.4313   121      154.2766      Cuts: 96    35897   14.36%
   1027     0      170.9616   121      154.2766      Cuts: 85    36075   10.81%
   1027     0      169.8557   121      154.2766      Cuts: 58    36161   10.10%
   1027     0      168.1354   121      154.2766      Cuts: 99    36285    8.98%
   1027     0      167.9319   121      154.2766      Cuts: 53    36344    8.85%
   1027     0      167.3518   121      154.2766      Cuts: 43    36426    8.48%
*  1027+    0                          157.4995      167.3518             6.26%
   1027     0      166.8938   121      157.4995      Cuts: 53    36482    5.96%
   1027     0      166.7760   121      157.4995      Cuts: 53    36559    5.89%
   1027     0      166.7207   121      157.4995      Cuts: 47    36605    5.85%
   1027     0      165.9897   121      157.4995      Cuts: 17    36659    5.39%
   1027     0      165.8835   121      157.4995      Cuts: 38    36700    5.32%
   1027     0      165.8420   121      157.4995      Cuts: 33    36743    5.30%
   1027     0      165.7723   121      157.4995      Cuts: 22    36780    5.25%
   1027     0      165.6572   121      157.4995      Cuts: 33    36822    5.18%
   1027     0      165.5674   121      157.4995      Cuts: 26    36864    5.12%
   1027     0      165.4853   121      157.4995      Cuts: 24    36905    5.07%
   1027     0      165.1785   121      157.4995      Cuts: 22    36980    4.88%
   1027     0      165.1100   121      157.4995      Cuts: 50    37049    4.83%
   1027     0      164.9977   121      157.4995      Cuts: 33    37083    4.76%
   1027     0      164.7177   121      157.4995      Cuts: 28    37153    4.58%
   1027     0      164.6098   121      157.4995      Cuts: 48    37184    4.51%
   1027     0      164.3331   121      157.4995      Cuts: 23    37221    4.34%
*  1027+    0                          157.4997      164.3331             4.34%
   1027     0      164.3256   121      157.4997      Cuts: 11    37241    4.33%
*  1027+    0                          160.0792      164.3256             2.65%
   1027     0      164.3031   121      160.0792      Cuts: 36    37273    2.64%
*  1027+    0                          160.0796      164.3031             2.64%
   1027     0        cutoff            160.0796      164.3031    37273    2.64%
   1027     0      164.1001   121      160.0796      Cuts: 34    37326    2.51%

Repeating presolve.
Tried aggregator 2 times.
MIP Presolve eliminated 106 rows and 158 columns.
MIP Presolve modified 182 coefficients.
Aggregator did 10 substitutions.
Reduced MIP has 311 rows, 318 columns, and 2080 nonzeros.
Reduced MIP has 268 binaries, 20 generals, 0 SOSs, and 0 indicators.
Presolve time = 0.01 sec. (4.08 ticks)
Tried aggregator 1 time.
MIP Presolve eliminated 41 rows and 31 columns.
MIP Presolve modified 6 coefficients.
Reduced MIP has 270 rows, 287 columns, and 1771 nonzeros.
Reduced MIP has 239 binaries, 20 generals, 0 SOSs, and 0 indicators.
Presolve time = 0.00 sec. (1.48 ticks)
Tried aggregator 1 time.
Reduced MIP has 270 rows, 287 columns, and 1771 nonzeros.
Reduced MIP has 239 binaries, 20 generals, 0 SOSs, and 0 indicators.
Presolve time = 0.00 sec. (1.12 ticks)
Represolve time = 0.03 sec. (25.42 ticks)
   1027     0      163.9434    54      160.0796      Cuts: 76    37818    2.41%
   1027     0      163.8334    54      160.0796      Cuts: 46    37861    2.34%
   1027     0      163.7846    54      160.0796      Cuts: 49    37888    2.31%
   1027     0      163.5871    54      160.0796      Cuts: 37    37931    2.19%
   1027     0      163.4529    54      160.0796      Cuts: 37    37967    2.11%
   1027     0      163.0636    54      160.0796      Cuts: 47    38018    1.86%
   1027     0      163.0122    54      160.0796      Cuts: 45    38043    1.83%
   1027     0      162.9460    54      160.0796      Cuts: 45    38092    1.79%
   1027     0      162.8338    54      160.0796      Cuts: 42    38143    1.72%
   1027     0      162.8132    54      160.0796      Cuts: 24    38181    1.71%
   1027     0      162.7030    54      160.0796      Cuts: 26    38243    1.64%
   1027     0      162.6939    54      160.0796      Cuts: 29    38270    1.63%
   1027     0      162.5969    54      160.0796      Cuts: 16    38308    1.57%
   1027     0      162.5675    54      160.0796      Cuts: 19    38330    1.55%
   1027     0      162.3206    54      160.0796      Cuts: 25    38381    1.40%
   1027     0      162.2524    54      160.0796      Cuts: 38    38420    1.36%
   1027     0      162.1323    54      160.0796      Cuts: 27    38453    1.28%
   1027     0      161.9805    54      160.0796      Cuts: 19    38478    1.19%
   1027     0      161.9333    54      160.0796      Cuts: 26    38500    1.16%
   1027     0      161.9105    54      160.0796      Cuts: 22    38515    1.14%
   1027     0      161.8756    54      160.0796      Cuts: 17    38532    1.12%
   1027     0      161.8422    54      160.0796      Cuts: 24    38546    1.10%
   1027     0      161.7721    54      160.0796      Cuts: 32    38569    1.06%
   1027     0      161.7638    54      160.0796      Cuts: 19    38605    1.05%
   1027     0      161.7480    54      160.0796      Cuts: 33    38626    1.04%
   1027     0      161.7477    54      160.0796      Cuts: 17    38635    1.04%
   1027     0      161.7225    54      160.0796      Cuts: 13    38662    1.03%
   1027     1      160.8765    60      160.0796      160.8765    38667    0.50%

GUB cover cuts applied:  7
Clique cuts applied:  33
Cover cuts applied:  4
Implied bound cuts applied:  12
Flow cuts applied:  2
Mixed integer rounding cuts applied:  18
Zero-half cuts applied:  23
Lift and project cuts applied:  3
Gomory fractional cuts applied:  2

Root node processing (before b&c):
  Real time             =    0.22 sec. (207.69 ticks)
Sequential b&c:
  Real time             =    3.50 sec. (3369.93 ticks)
                          ------------
Total (root+branch&cut) =    3.72 sec. (3577.62 ticks)

Solution pool: 16 solutions saved.

MIP - Integer optimal, tolerance (0.0001/1e-06):  Objective =  1.6007961075e+02
Current MIP best bound =  1.6008014452e+02 (gap = 0.000533761, 0.00%)
Solution time =    3.72 sec.  Iterations = 38705  Nodes = 1029 (1)
Deterministic time = 3577.62 ticks  (961.95 ticks/sec)


Incumbent solution
Variable Name           Solution Value
F                           175.000000
f1                            0.900389
f2                           14.020000
y165                          1.000000
y76                           1.000000
y141                          1.000000
y71                           1.000000
y88                           1.000000
y67                           1.000000
y172                          1.000000
y36                           1.000000
y5                            1.000000
y25                           1.000000
s7                            6.000000
s20                           6.000000
s34                           6.000000
s51                           6.000000
s55                           6.000000
s65                           6.000000
s91                           6.000000
s165                          6.285743
s163                          6.010000
s157                          6.020000
s161                          6.020000
s19                           6.140000
s121                          6.260000
s21                           6.290000
s76                           6.668716
s141                          6.986812
s159                          6.410000
s145                          6.420000
s33                           6.490000
s71                           6.715578
s88                           6.724621
s24                           6.610000
s28                           6.690000
s67                           7.527404
s177                          6.730000
s97                           6.740000
s72                           6.780000
s139                          6.790000
s178                          6.810000
s172                          7.767309
s36                           7.757742
s83                           6.950000
s5                            7.757241
s46                           6.970000
s61                           6.990000
s25                           7.930080
s79                           7.050000
s140                          7.060000
x189x165x1                    1.000000
x189x88x1                     1.000000
x87x76x1                      1.000000
x38x141x1                     1.000000
x38x67x1                      1.000000
x175x71x2                     1.000000
x158x141x2                    1.000000
x158x5x2                      1.000000
x175x165x3                    1.000000
x87x76x3                      1.000000
x41x71x3                      1.000000
x41x88x3                      1.000000
x165x67x1                     1.000000
x165x5x3                      1.000000
x76x25x1                      1.000000
x76x25x3                      1.000000
x141x0x1                      1.000000
x141x0x2                      1.000000
x71x36x2                      1.000000
x71x36x3                      1.000000
x88x172x1                     1.000000
x88x172x3                     1.000000
x67x0x1                       2.000000
x172x0x1                      1.000000
x172x0x3                      1.000000
x36x0x2                       1.000000
x36x0x3                       1.000000
x5x0x2                        1.000000
x5x0x3                        1.000000
x25x0x1                       1.000000
x25x0x3                       1.000000
s175                          4.864785
z175z165z3                    1.000000
z175z33z3                     1.000000
z175z71z2                     1.000000
z175z24z3                     1.000000
z175z28z2                     1.000000
z175z72z2                     1.000000
z175z83z2                     1.000000
z175z46z2                     1.000000
z175z140z3                    1.000000
s189                          4.901516
z189z165z1                    1.000000
z189z88z1                     1.000000
z189z67z1                     1.000000
s158                          5.267774
z158z141z2                    1.000000
z158z5z2                      1.000000
s87                           5.096126
z87z76z1                      1.000000
z87z76z3                      1.000000
z87z67z1                      1.000000
z87z140z3                     1.000000
s41                           5.366879
z41z71z3                      1.000000
z41z88z3                      1.000000
z41z140z3                     1.000000
s38                           5.433136
z38z141z1                     1.000000
z38z67z1                      1.000000
z165z67z1                     1.000000
z165z5z3                      1.000000
z76z25z1                      1.000000
z76z25z3                      1.000000
z145z67z1                     1.000000
z71z36z2                      1.000000
z71z36z3                      1.000000
z88z172z1                     1.000000
z88z172z3                     1.000000
All other variables in the range 1-1259 are 0.
